NAME : A-n53-k7
COMMENT : (Augerat et al, No of trucks: 7, Optimal value: 1010)
TYPE : CVRP
DIMENSION : 50
EDGE_WEIGHT_TYPE : EUC_2D 
CAPACITY : 100
NODE_COORD_SECTION 
 1 0 0
 2 0 2
 3 0 3
 4 0 4
 5 0 5
 6 0 6
 7 0 7
 8 0 8
 9 0 9
 10 3 0 
 11 3 1
 12 3 2
 13 3 3
 14 3 4
 15 3 5
 16 3 6
 17 3 7
 18 3 8
 19 3 9
 20 5 0
 21 5 1
 22 5 2
 23 5 3
 24 5 4
 25 5 5
 26 5 6
 27 5 7
 28 5 8
 29 5 9
 30 7 0
 31 7 1
 32 7 2
 33 8 1
 34 8 2
 35 8 3
 36 8 4
 37 8 5
 38 8 6
 39 8 7
 40 8 8
 41 8 9
 42 9 1
 43 9 2
 44 9 3
 45 9 4
 46 9 5
 47 9 6
 48 9 7
 49 9 8
 50 9 9
DEMAND_SECTION 
1 0 
2 0 
3 0 
4 0 
5 0 
6 0 
7 20 
8 0 
9 0 
10 0 
11 24 
12 0 
13 0 
14 0 
15 20 
16 0 
17 0 
18 23 
19 0 
20 0 
21 13 
22 0 
23 0 
24 0 
25 0 
26 0 
27 0 
28 0 
29 0 
30 0 
31 0 
32 0 
33 0 
34 30 
35 0 
36 0 
37 0 
38 0 
39 0 
40 0 
41 0 
42 0 
43 0 
44 0 
45 0 
46 0 
47 0 
48 0 
49 0 
50 0
DEPOT_SECTION 
 1  
 -1  
EOF 
